0 0 0 0
0 1 0 0
0 2 2 0
0 3 0 0
0 4 1 7
0 5 2 1
0 6 2 10
0 7 2 7
0 8 2 3
0 9 2 1
0 10 1 7
0 11 1 9
0 12 2 1
0 13 2 14
0 14 2 15
0 15 0 12
0 16 1 15
0 17 1 23
0 18 2 14
0 19 0 25
0 20 2 19
0 21 2 22
0 22 1 22
0 23 2 12
0 24 1 23
0 25 2 14
0 26 2 21
0 27 0 27
0 28 1 28
0 29 0 30
0 30 1 27
0 31 0 32
